Route #1: 1 1 43 42 41 56 3 16 1 
Route #2: 1 22 59 47 15 2 6 51 1 
Route #3: 1 12 58 31 55 50 44 49 23 1 
Route #4: 1 33 53 19 27 37 48 1 
Route #5: 1 24 18 25 32 39 34 1 
Route #6: 1 30 29 57 13 35 52 4 1 
Route #7: 1 28 36 5 46 8 7 1 
Route #8: 1 17 40 9 26 54 1 
Route #9: 1 21 20 14 45 1 
Route #10: 1 10 38 11 1 

Cost 1242.78
Time 0.8404


 * Another infos *

 Iterations: 60 Time: 0.8404 sec - 0.0140 min - 0.0002 horas
0.0000 h 0.0140 min
Problem dimension: 60
